NAME : eil51.1005675.tour
COMMENT : Cost = 112072_1005675
COMMENT : Found by LKH [Keld Helsgaun] Thu Nov 16 20:42:56 2017
TYPE : TOUR
DIMENSION : 70
TOUR_SECTION
1
22
52
27
53
8
54
11
55
48
56
2
57
51
58
46
12
37
44
42
17
47
68
9
30
34
50
21
29
69
23
24
43
7
59
28
36
35
20
67
40
60
6
61
31
62
16
63
5
15
45
33
39
10
49
38
64
26
65
3
66
18
4
19
41
13
25
14
70
32
-1
EOF
